c Qdimacs file from skolem function generator
p cnf 426 1346
a 338 339 340 341 342 343 344 345 346 347 348 349 350 351 352 353 354 355 356 357 358 359 360 361 362 363 364 365 366 367 368 369 370 371 372 373 374 375 376 377 378 379 380 381 382 383 384 385 386 387 388 389 390 391 392 393 394 395 396 397 398 399 400 401 402 403 404 405 406 407 408 409 410 411 412 413 414 415 416 417 418 419 420 421 422 423 424 425 0
e 296 297 298 299 300 301 302 303 304 305 306 307 308 309 310 311 312 313 314 315 316 317 318 319 320 321 322 323 324 325 326 327 328 329 330 331 332 333 334 335 336 337 1 2 3 4 5 6 7 8 9 10 11 12 13 14 15 16 17 18 19 20 21 22 23 24 25 26 27 28 29 30 31 32 33 34 35 36 37 38 39 40 41 42 43 44 45 46 47 48 49 50 51 52 53 54 55 56 57 58 59 60 61 62 63 64 65 66 67 68 69 70 71 72 73 74 75 76 77 78 79 80 81 82 83 84 85 86 87 88 89 90 91 92 93 94 95 96 97 98 99 100 101 102 103 104 105 106 107 108 109 110 111 112 113 114 115 116 117 118 119 120 121 122 123 124 125 126 127 128 129 130 131 132 133 134 135 136 137 138 139 140 141 142 143 144 145 146 147 148 149 150 151 152 153 154 155 156 157 158 159 160 161 162 163 164 165 166 167 168 169 170 171 172 173 174 175 176 177 178 179 180 181 182 183 184 185 186 187 188 189 190 191 192 193 194 195 196 197 198 199 200 201 202 203 204 205 206 207 208 209 210 211 212 213 214 215 216 217 218 219 220 221 222 223 224 225 226 227 228 229 230 231 232 233 234 235 236 237 238 239 240 241 242 243 244 245 246 247 248 249 250 251 252 253 254 255 256 257 258 259 260 261 262 263 264 265 266 267 268 269 270 271 272 273 274 275 276 277 278 279 280 281 282 283 284 285 286 287 288 289 290 291 292 293 294 295 426 0
4 380 5 -258 -265 0
4 -380 -5 -258 -265 0
-4 265 0
-4 -380 5 0
-4 258 0
-4 380 -5 0
5 -381 -6 0
5 381 -251 -255 0
-5 381 251 0
-5 -381 6 0
-5 381 255 0
6 7 -88 -130 -174 0
-6 -7 0
-6 174 0
-6 130 0
-6 88 0
7 -8 80 0
7 -80 87 0
7 80 -81 0
-7 -80 -87 0
-7 8 80 81 0
8 18 62 -63 0
8 9 18 62 0
-8 -62 0
-8 -18 0
-8 -9 63 0
9 -10 12 -14 0
-9 10 0
-9 -12 0
-9 14 0
10 370 -372 0
10 -370 372 11 0
10 -369 370 -11 0
-10 -370 -11 0
-10 370 372 11 0
-10 -370 -372 0
-10 369 372 -11 0
11 371 -373 0
-11 -371 0
-11 373 0
12 -371 372 -373 0
12 371 373 13 0
12 371 -372 -373 0
12 372 -373 -13 0
-12 -371 -372 0
-12 371 372 -373 13 0
-12 -371 373 0
-12 373 -13 0
13 369 370 0
-13 -369 0
-13 -370 0
14 15 -16 0
-14 -15 0
-14 16 0
15 371 -372 0
15 370 371 0
15 371 -373 0
15 -370 -371 372 0
-15 370 -371 0
-15 -371 -372 0
-15 -370 371 372 373 0
16 369 -370 17 0
16 369 370 -371 0
-16 -369 0
-16 -370 -17 0
-16 370 371 0
17 -371 -372 0
-17 371 0
-17 372 0
18 27 9 59 0
18 19 27 9 0
-18 -9 0
-18 -27 0
-18 -19 -59 0
19 -20 -21 0
-19 20 0
-19 21 0
20 10 12 0
-20 -10 0
-20 -12 0
21 22 -23 0
-21 -22 0
-21 23 0
22 369 -15 0
22 -369 15 0
-22 -369 -15 0
-22 369 15 0
23 24 25 0
-23 -24 0
-23 -25 0
24 369 17 0
24 369 370 0
-24 -369 0
-24 -370 -17 0
25 -369 -26 0
-25 369 0
-25 26 0
26 -370 -371 0
26 -370 -373 0
26 -370 -372 0
-26 370 0
-26 371 372 373 0
27 30 19 -53 0
27 28 30 19 0
-27 -19 0
-27 -30 0
-27 -28 53 0
28 369 370 371 -29 0
-28 29 0
-28 -371 0
-28 -369 0
-28 -370 0
29 10 -12 0
-29 -10 0
-29 12 0
30 -31 -42 0
30 -38 -42 0
30 -40 -42 0
-30 42 0
-30 31 38 40 0
31 311 -33 37 0
31 -32 33 37 0
-31 -37 0
-31 -311 -33 0
-31 32 33 0
32 -311 -353 0
32 311 353 0
-32 311 -353 0
-32 -311 353 0
33 -361 -34 0
-33 361 0
-33 34 0
34 -35 -36 0
-34 35 0
-34 36 0
35 -10 -12 0
-35 10 0
-35 12 0
36 -15 -16 0
-36 15 0
-36 16 0
37 -22 -29 -23 0
-37 22 0
-37 29 0
-37 23 0
38 -20 -39 0
-38 20 0
-38 39 0
39 17 -25 0
-39 -17 0
-39 25 0
40 311 -37 -41 0
40 -32 -37 41 0
-40 37 0
-40 32 41 0
-40 -311 -41 0
41 361 -362 0
-41 -361 0
-41 362 0
42 28 -51 0
42 28 -43 0
42 38 28 0
-42 -28 0
-42 -38 43 51 0
43 311 -353 -44 46 0
-43 -311 0
-43 -46 0
-43 44 0
-43 353 0
44 -343 45 0
-44 343 0
-44 -45 0
45 -338 -359 0
45 338 339 359 360 0
-45 338 -339 0
-45 -338 359 0
-45 359 -360 0
-45 338 -359 0
46 47 -49 0
-46 -47 0
-46 49 0
47 338 -339 -48 0
-47 48 0
-47 339 0
-47 -338 0
48 359 -360 0
-48 -359 0
-48 360 0
49 -344 -50 0
-49 344 0
-49 50 0
50 -353 -44 0
-50 353 0
-50 44 0
51 -344 -32 0
51 -32 52 0
-51 32 0
-51 344 -52 0
52 47 -50 0
-52 -47 0
-52 50 0
53 -311 -56 0
53 32 54 0
53 54 -56 0
53 -311 32 0
-53 -32 56 0
-53 311 -54 0
54 -376 377 -378 55 0
-54 378 0
-54 -55 0
-54 376 0
-54 -377 0
55 -347 359 0
55 347 -348 360 0
55 347 -359 0
55 348 359 -360 0
-55 -347 -359 0
-55 347 -348 359 -360 0
-55 347 348 359 360 0
56 -376 377 -378 57 0
-56 378 0
-56 -57 0
-56 376 0
-56 -377 0
57 347 -348 0
57 -347 359 0
57 347 58 0
-57 -347 -359 0
-57 347 348 -58 0
58 359 360 0
-58 -359 0
-58 -360 0
59 -311 32 0
59 -60 61 0
59 32 61 0
59 -311 -60 0
-59 -32 60 0
-59 311 -61 0
60 376 377 -378 57 0
-60 -376 0
-60 -57 0
-60 378 0
-60 -377 0
61 376 377 -378 55 0
-61 -376 0
-61 -55 0
-61 378 0
-61 -377 0
62 -36 -29 0
-62 36 0
-62 29 0
63 -64 67 0
63 32 67 0
-63 -67 0
-63 -32 64 0
64 376 -377 378 -65 0
-64 377 0
-64 -378 0
-64 -376 0
-64 65 0
65 47 45 -66 0
-65 66 0
-65 -45 0
-65 -47 0
66 -340 -359 0
66 340 341 359 360 0
-66 340 -341 0
-66 -340 359 0
-66 359 -360 0
-66 340 -359 0
67 -68 -78 0
67 354 -68 71 0
-67 68 0
-67 -354 78 0
-67 -71 78 0
68 376 -377 378 -69 0
-68 377 0
-68 -378 0
-68 -376 0
-68 69 0
69 45 70 0
-69 -45 0
-69 -70 0
70 -340 359 0
70 340 -341 360 0
70 340 -359 0
70 341 359 -360 0
-70 -340 -359 0
-70 340 -341 359 -360 0
-70 340 341 359 360 0
71 311 32 0
71 -72 75 0
71 32 75 0
71 311 -72 0
-71 -311 -75 0
-71 -32 72 0
72 -342 -73 0
72 -73 -74 0
-72 73 0
-72 342 74 0
73 354 -356 0
-73 -354 0
-73 356 0
74 -338 357 0
74 338 -339 358 0
74 338 -357 0
74 339 357 -358 0
-74 -338 -357 0
-74 338 -339 357 -358 0
-74 338 339 357 358 0
75 -356 76 0
-75 356 0
-75 -76 0
76 342 -77 0
-76 -342 0
-76 77 0
77 -338 -357 0
77 338 339 357 358 0
-77 338 -339 0
-77 -338 357 0
-77 357 -358 0
-77 338 -357 0
78 -354 355 79 0
78 -354 -355 -32 0
-78 354 0
-78 -355 32 0
-78 355 -79 0
79 311 32 0
79 -77 -74 0
79 311 -74 0
79 32 -77 0
-79 -311 77 0
-79 -32 74 0
80 -35 -21 0
-80 35 0
-80 21 0
81 32 -62 82 0
81 -62 82 -86 0
-81 62 0
-81 -82 0
-81 -32 86 0
82 -32 83 -84 0
82 79 -83 -84 0
-82 84 0
-82 -79 -83 0
-82 32 83 0
83 -354 355 0
-83 354 0
-83 -355 0
84 -69 -85 0
-84 69 0
-84 85 0
85 346 -376 377 378 0
-85 376 0
-85 -378 0
-85 -346 0
-85 -377 0
86 -65 -85 0
-86 65 0
-86 85 0
87 311 -345 0
87 345 -32 0
-87 -311 -345 0
-87 345 32 0
88 -94 -100 0
88 -9 89 -100 0
-88 100 0
-88 -89 94 0
-88 9 94 0
89 312 -93 0
89 90 92 0
89 90 -93 0
89 312 92 0
-89 -312 -90 0
-89 -92 93 0
90 -68 -91 0
-90 68 0
-90 91 0
91 353 354 0
-91 -353 0
-91 -354 0
92 -312 -354 0
92 312 354 0
-92 312 -354 0
-92 -312 354 0
93 -64 -91 0
-93 64 0
-93 91 0
94 -19 9 99 0
94 19 9 -95 0
-94 -9 0
-94 -19 -99 0
-94 19 95 0
95 96 98 0
95 97 98 0
-95 -98 0
-95 -96 -97 0
96 -29 -14 0
-96 29 0
-96 14 0
97 -312 -350 0
97 350 92 0
-97 312 -350 0
-97 350 -92 0
98 -312 -33 96 0
98 33 92 96 0
-98 -96 0
-98 312 -33 0
-98 33 -92 0
99 -60 61 0
99 -312 92 0
99 -312 -60 0
99 61 92 0
-99 60 -92 0
-99 312 -61 0
100 9 101 121 0
100 -9 101 119 0
-100 -101 0
-100 9 -121 0
-100 -9 -119 0
101 -62 -102 0
101 62 -114 0
101 62 -107 0
-101 -62 102 0
-101 62 107 114 0
102 -86 105 0
102 103 104 0
102 103 105 0
-102 86 -103 0
-102 -104 -105 0
-102 -103 -105 0
103 -326 -368 0
103 326 368 0
-103 326 -368 0
-103 -326 368 0
104 353 -354 355 0
-104 -353 0
-104 354 0
-104 -355 0
105 -353 -84 0
105 83 -84 0
105 -84 106 0
-105 84 0
-105 353 -83 -106 0
106 -77 -74 0
106 -326 103 0
106 -326 -74 0
106 -77 103 0
-106 74 -103 0
-106 326 77 0
107 -9 -64 108 0
107 -9 103 108 0
-107 9 0
-107 -108 0
-107 64 -103 0
108 -68 -109 0
108 -68 -112 0
108 -68 -111 0
-108 68 0
-108 109 111 112 0
109 -354 355 -110 0
109 -354 -355 -103 0
-109 354 0
-109 -355 103 0
-109 355 110 0
110 353 106 0
-110 -353 0
-110 -106 0
111 -353 -103 0
-111 353 0
-111 103 0
112 354 -113 0
112 354 72 -103 0
-112 -354 0
-112 -72 113 0
-112 103 113 0
113 -326 353 -75 0
-113 326 0
-113 -353 0
-113 75 0
114 9 103 116 0
114 9 -115 116 0
-114 -9 0
-114 -116 0
-114 -103 115 0
115 -38 49 0
-115 38 0
-115 -49 0
116 -117 -118 0
116 326 -50 -117 0
-116 117 0
-116 -326 118 0
-116 50 118 0
117 -38 46 0
-117 38 0
-117 -46 0
118 52 -103 0
-118 -52 0
-118 103 0
119 -313 120 0
119 90 -93 0
119 90 120 0
119 -313 -93 0
-119 313 -90 0
-119 93 -120 0
120 -313 -355 0
120 313 355 0
-120 313 -355 0
-120 -313 355 0
121 -19 -122 0
121 19 -128 0
121 19 -123 0
-121 -19 122 0
-121 19 123 128 0
122 313 -60 0
122 61 120 0
122 -60 61 0
122 313 120 0
-122 60 -120 0
-122 -313 -61 0
123 28 -115 124 0
123 28 120 124 0
-123 -28 0
-123 -124 0
-123 115 -120 0
124 -117 -125 0
124 -117 -126 0
-124 117 0
-124 125 126 0
125 52 -120 0
-125 -52 0
-125 120 0
126 313 -50 127 0
126 -313 -50 -127 0
-126 50 0
-126 -313 127 0
-126 313 -127 0
127 -354 -355 0
-127 354 0
-127 355 0
128 313 -28 129 0
128 -28 54 129 0
-128 28 0
-128 -129 0
-128 -313 -54 0
129 56 -120 0
-129 -56 0
-129 120 0
130 -62 -146 0
130 -131 -146 0
130 -140 -146 0
-130 146 0
-130 62 131 140 0
131 9 132 139 0
131 9 132 -138 0
-131 -9 0
-131 -132 0
-131 138 -139 0
132 -34 38 136 0
132 34 38 -133 0
-132 -38 0
-132 -34 -136 0
-132 34 133 0
133 134 135 0
133 338 134 0
133 -324 -338 -135 0
-133 338 -134 0
-133 -134 135 0
-133 324 -338 -135 0
134 -324 -366 0
134 324 366 0
-134 324 -366 0
-134 -324 366 0
135 -346 -364 -35 -39 0
-135 39 0
-135 346 0
-135 35 0
-135 364 0
136 -361 137 0
136 -134 137 0
-136 -137 0
-136 361 134 0
137 324 -351 -361 0
137 324 -361 -363 0
137 -324 351 -361 363 0
-137 -324 -351 0
-137 -324 -363 0
-137 361 0
-137 324 351 363 0
138 50 -134 0
138 338 -134 0
-138 134 0
-138 -338 -50 0
139 -324 -38 0
139 338 -38 0
139 -38 50 0
-139 38 0
-139 324 -338 -50 0
140 -9 -141 0
140 -9 93 -134 0
-140 9 0
-140 -93 141 0
-140 134 141 0
141 324 -145 0
141 -142 -143 -145 0
-141 145 0
-141 -324 142 0
-141 -324 143 0
142 -73 76 0
-142 73 0
-142 -76 0
143 338 359 -144 0
143 338 -357 359 0
-143 -338 0
-143 -359 0
-143 357 144 0
144 -363 -364 0
-144 363 0
-144 364 0
145 -324 -90 0
145 72 -90 0
145 -90 143 0
-145 90 0
-145 324 -72 -143 0
146 147 -166 0
146 -62 147 161 0
-146 -147 0
-146 -161 166 0
-146 62 166 0
147 -62 -148 0
147 62 -159 0
147 62 -154 0
-147 -62 148 0
-147 62 154 159 0
148 -150 151 0
148 149 151 0
-148 -151 0
-148 -149 150 0
149 -321 -363 0
149 321 363 0
-149 321 -363 0
-149 -321 363 0
150 -86 -91 0
-150 86 0
-150 91 0
151 -321 -152 -153 0
151 -149 -152 153 0
-151 152 0
-151 321 -153 0
-151 149 153 0
152 -84 -91 0
-152 84 0
-152 91 0
153 -338 354 -356 0
-153 338 0
-153 -354 0
-153 356 0
154 9 155 157 0
154 34 9 155 0
-154 -155 0
-154 -9 0
-154 -34 -157 0
155 34 156 -149 0
155 321 34 -156 0
-155 -34 0
-155 156 149 0
-155 -321 -156 0
156 -338 -135 0
-156 338 0
-156 135 0
157 -149 158 0
157 -321 -158 0
-157 149 158 0
-157 321 -158 0
158 -351 -361 0
-158 351 0
-158 361 0
159 -321 -9 160 0
159 -9 90 160 0
-159 9 0
-159 -160 0
-159 321 -90 0
160 93 -149 0
-160 -93 0
-160 149 0
161 -150 163 0
161 162 163 0
-161 -163 0
-161 150 -162 0
162 -323 -365 0
162 323 365 0
-162 323 -365 0
-162 -323 365 0
163 -323 -152 -164 0
163 -152 -162 164 0
-163 152 0
-163 323 -164 0
-163 162 164 0
164 -165 -73 0
-164 165 0
-164 73 0
165 338 339 0
-165 -338 0
-165 -339 0
166 -9 -172 0
166 -167 -172 0
166 -169 -172 0
-166 172 0
-166 9 167 169 0
167 323 34 -168 0
167 34 -162 168 0
-167 -34 0
-167 -323 -168 0
-167 162 168 0
168 -165 -135 0
-168 165 0
-168 135 0
169 -323 -34 -170 0
169 -34 -162 170 0
-169 34 0
-169 323 -170 0
-169 162 170 0
170 -361 -171 0
-170 361 0
-170 171 0
171 351 352 0
-171 -351 0
-171 -352 0
172 62 173 0
172 323 62 -90 0
-172 -62 0
-172 -323 -173 0
-172 90 -173 0
173 -9 -93 0
173 -9 162 0
-173 9 0
-173 93 -162 0
174 -175 -216 227 236 0
-174 216 0
-174 -236 0
-174 175 0
-174 -227 0
175 62 -190 0
175 -176 -184 -190 0
-175 190 0
-175 -62 176 0
-175 -62 184 0
176 177 -182 0
176 150 177 -181 0
-176 -177 0
-176 -150 182 0
-176 181 182 0
177 -150 179 0
177 178 179 0
-177 -179 0
-177 150 -178 0
178 -315 -357 0
178 315 -316 357 -358 0
178 315 316 357 358 0
-178 -315 357 0
-178 315 -316 358 0
-178 315 -357 0
-178 316 357 -358 0
179 73 -152 180 0
179 -73 -152 -178 0
-179 152 0
-179 73 -180 0
-179 -73 178 0
180 -315 338 0
180 315 -316 339 0
180 315 -338 0
180 316 338 -339 0
-180 -315 -338 0
-180 315 -316 338 -339 0
-180 315 316 338 339 0
181 -325 -367 0
181 325 367 0
-181 325 -367 0
-181 -325 367 0
182 -73 -152 -183 0
182 73 -152 -181 0
-182 152 0
-182 -73 183 0
-182 73 181 0
183 -325 -365 0
183 -325 -165 0
183 325 365 165 0
-183 325 -165 0
-183 -325 365 165 0
-183 325 -365 0
184 -185 187 0
184 -134 150 187 0
-184 -187 0
-184 -150 185 0
-184 134 185 0
185 73 -134 -152 0
185 -73 -152 -186 0
-185 152 0
-185 -73 186 0
-185 73 134 0
186 -324 -338 0
186 -324 -363 0
186 324 338 363 0
-186 324 -363 0
-186 -324 338 363 0
-186 324 -338 0
187 -150 189 0
187 188 189 0
-187 -189 0
-187 150 -188 0
188 -322 -364 0
188 322 364 0
-188 322 -364 0
-188 -322 364 0
189 73 -152 -188 0
189 -322 -73 -152 0
-189 152 0
-189 73 188 0
-189 322 -73 0
190 9 201 -204 0
190 -191 201 -204 0
-190 204 0
-190 -201 0
-190 -9 191 0
191 192 200 0
191 322 -90 192 0
-191 -192 0
-191 -322 -200 0
-191 90 -200 0
192 193 -195 0
192 90 193 0
192 142 193 0
-192 -193 0
-192 -90 -142 195 0
193 93 194 0
193 -68 72 194 0
-193 -194 0
-193 -72 -93 0
-193 68 -93 0
194 -332 374 0
194 332 -333 375 0
194 332 -374 0
194 333 374 -375 0
-194 -332 -374 0
-194 332 -333 374 -375 0
-194 332 333 374 375 0
195 -74 -196 0
195 -77 -197 0
195 -77 -74 0
195 -196 -197 0
-195 74 197 0
-195 77 196 0
196 -332 357 0
196 332 -333 358 0
196 332 -357 0
196 333 357 -358 0
-196 -332 -357 0
-196 332 -333 357 -358 0
-196 332 333 357 358 0
197 332 -342 -198 0
197 -332 -342 199 0
-197 342 0
-197 -332 -199 0
-197 332 198 0
198 333 365 0
198 333 -165 0
-198 -333 0
-198 -365 165 0
199 338 -363 0
-199 -338 0
-199 363 0
200 62 -93 0
200 62 188 0
-200 -62 0
-200 93 -188 0
201 33 37 -203 0
201 -33 37 202 0
-201 -37 0
-201 -33 -202 0
-201 33 203 0
202 319 320 0
-202 -319 0
-202 -320 0
203 -319 361 0
203 319 -320 362 0
203 319 -361 0
203 320 361 -362 0
-203 -319 -361 0
-203 319 -320 361 -362 0
-203 319 320 361 362 0
204 205 -206 211 -212 0
-204 206 0
-204 -211 0
-204 -205 0
-204 212 0
205 319 -320 -37 0
205 -319 361 -37 0
205 319 -361 -37 0
-205 37 0
-205 -319 -361 0
-205 319 320 361 0
206 -48 -207 -209 0
206 48 207 -208 -209 0
-206 48 -207 0
-206 -48 207 0
-206 209 0
-206 48 208 0
207 317 -318 0
-207 -317 0
-207 318 0
208 -317 -359 0
208 317 359 0
-208 317 -359 0
-208 -317 359 0
209 -309 -380 0
209 310 -380 0
209 -380 -210 0
-209 380 0
-209 309 -310 210 0
210 351 -352 0
-210 -351 0
-210 352 0
211 -309 351 0
211 309 310 -351 0
211 310 351 -352 0
-211 309 -310 0
-211 -309 -351 0
-211 309 351 352 0
212 -342 214 0
212 213 199 214 0
-212 -214 0
-212 342 -213 0
-212 342 -199 0
213 -365 165 0
-213 365 0
-213 -165 0
214 344 -215 0
214 338 344 -366 0
-214 -344 0
-214 -338 215 0
-214 366 215 0
215 -367 165 0
-215 367 0
-215 -165 0
216 -9 217 0
216 217 222 226 0
-216 -217 0
-216 9 -226 0
-216 9 -222 0
217 62 218 -221 0
217 9 62 218 0
-217 -218 0
-217 -62 0
-217 -9 221 0
218 9 -178 219 0
218 9 -219 220 0
-218 -9 0
-218 178 219 0
-218 -219 -220 0
219 -354 361 -362 -37 0
-219 37 0
-219 354 0
-219 362 0
-219 -361 0
220 -315 351 0
220 315 -316 352 0
220 315 -351 0
220 316 351 -352 0
-220 -315 -351 0
-220 315 -316 351 -352 0
-220 315 316 351 352 0
221 90 178 0
221 -93 -180 0
221 90 -93 0
221 178 -180 0
-221 -90 180 0
-221 93 -178 0
222 38 -194 0
222 -38 -46 223 0
222 -194 223 0
-222 -38 -223 0
-222 38 194 0
-222 46 194 0
223 -49 -224 0
-223 49 0
-223 224 0
224 332 -333 0
224 -332 -225 0
224 332 -215 0
-224 -332 225 0
-224 332 333 215 0
225 338 -366 0
-225 -338 0
-225 366 0
226 322 -33 62 0
226 33 62 188 0
-226 -62 0
-226 33 -188 0
-226 -322 -33 0
227 -62 -228 0
227 62 -234 0
227 62 -230 0
-227 -62 228 0
-227 62 230 234 0
228 314 -150 0
228 152 229 0
228 -150 152 0
228 314 229 0
-228 150 -229 0
-228 -314 -152 0
229 -314 -356 0
229 314 356 0
-229 314 -356 0
-229 -314 356 0
230 9 231 -233 0
230 28 9 231 0
-230 -231 0
-230 -9 0
-230 -28 233 0
231 314 28 -232 0
231 28 -229 232 0
-231 -28 0
-231 -314 -232 0
-231 229 232 0
232 -350 -96 0
-232 350 0
-232 96 0
233 -314 229 0
233 54 -56 0
233 54 229 0
233 -314 -56 0
-233 314 -54 0
-233 56 -229 0
234 314 -9 235 0
234 -9 90 235 0
-234 9 0
-234 -235 0
-234 -314 -90 0
235 93 -229 0
-235 -93 0
-235 229 0
236 62 237 -245 0
236 9 62 237 0
-236 -237 0
-236 -62 0
-236 -9 245 0
237 9 238 243 0
237 9 238 -242 0
-237 -9 0
-237 -238 0
-237 242 -243 0
238 -34 38 240 0
238 34 38 -239 0
-238 -38 0
-238 -34 -240 0
-238 34 239 0
239 165 181 0
239 135 181 0
239 -325 -165 -135 0
-239 165 -181 0
-239 135 -181 0
-239 325 -165 -135 0
240 -361 241 0
240 -181 241 0
-240 -241 0
-240 361 181 0
241 325 -361 -365 0
241 325 -361 -171 0
241 -325 -361 365 171 0
-241 -325 -365 0
-241 325 365 171 0
-241 361 0
-241 -325 -171 0
242 50 -181 0
242 165 -181 0
-242 181 0
-242 -165 -50 0
243 -38 244 0
243 -38 50 0
-243 38 0
-243 -50 -244 0
244 325 -165 0
-244 -325 0
-244 165 0
245 -93 246 0
245 181 246 0
-245 -246 0
-245 93 -181 0
246 325 -250 0
246 -142 -247 -250 0
-246 250 0
-246 -325 142 0
-246 -325 247 0
247 58 165 -249 0
247 58 165 -248 0
-247 -58 0
-247 -165 0
-247 248 249 0
248 357 358 0
-248 -357 0
-248 -358 0
249 -364 -365 0
-249 364 0
-249 365 0
250 -325 -90 0
250 72 -90 0
250 -90 247 0
-250 90 0
-250 325 -72 -247 0
251 252 -253 -254 0
251 -207 -253 -254 0
-251 254 0
-251 253 0
-251 -252 207 0
252 315 -316 0
-252 -315 0
-252 316 0
253 323 324 325 326 0
-253 -326 0
-253 -325 0
-253 -323 0
-253 -324 0
254 313 314 321 322 0
-254 -322 0
-254 -321 0
-254 -313 0
-254 -314 0
255 315 256 -257 0
255 -317 256 -257 0
-255 257 0
-255 -256 0
-255 -315 317 0
256 316 317 -318 0
256 315 316 -317 0
-256 -316 0
-256 317 318 0
-256 -315 -317 0
257 311 312 319 320 0
-257 -320 0
-257 -319 0
-257 -311 0
-257 -312 0
258 -259 -260 -261 -262 0
-258 262 0
-258 259 0
-258 261 0
-258 260 0
259 337 379 -120 -162 0
259 -337 -379 -120 -162 0
-259 162 0
-259 -337 379 0
-259 120 0
-259 337 -379 0
260 -330 -372 -103 0
260 330 372 -103 0
-260 103 0
-260 -330 372 0
-260 330 -372 0
261 -306 318 -348 360 0
261 306 -318 348 -360 0
261 306 318 348 360 0
261 -306 -318 -348 -360 0
-261 -306 348 0
-261 306 -348 0
-261 318 -360 0
-261 -318 360 0
262 -32 -263 -264 -181 0
-262 181 0
-262 32 0
-262 264 0
-262 263 0
263 -315 -357 0
263 315 357 0
-263 315 -357 0
-263 -315 357 0
264 -316 -358 0
264 316 358 0
-264 316 -358 0
-264 -316 358 0
265 -266 -278 -285 -290 0
-265 290 0
-265 266 0
-265 285 0
-265 278 0
266 -267 -270 -274 -275 0
-266 275 0
-266 267 0
-266 274 0
-266 270 0
267 331 373 268 -269 0
267 -331 -373 268 -269 0
-267 -268 0
-267 331 -373 0
-267 269 0
-267 -331 373 0
268 307 -349 0
268 -307 349 0
-268 -307 -349 0
-268 307 349 0
269 -297 298 -339 340 0
269 297 -298 339 -340 0
269 297 298 339 340 0
269 -297 -298 -339 -340 0
-269 -297 339 0
-269 297 -339 0
-269 298 -340 0
-269 -298 340 0
270 296 338 -271 -273 0
270 -296 -338 -271 -273 0
-270 273 0
-270 -296 338 0
-270 271 0
-270 296 -338 0
271 -310 -352 -272 0
271 310 352 -272 0
-271 272 0
-271 -310 352 0
-271 310 -352 0
272 308 335 0
272 -350 -377 0
272 308 -377 0
272 335 -350 0
-272 -308 350 0
-272 -335 377 0
273 -308 -381 0
273 350 -381 0
-273 381 0
-273 308 -350 0
274 -92 -149 -188 -229 0
-274 229 0
-274 92 0
-274 188 0
-274 149 0
275 317 359 -276 -277 0
275 -317 -359 -276 -277 0
-275 277 0
-275 -317 359 0
-275 276 0
-275 317 -359 0
276 -309 -351 0
276 309 351 0
-276 309 -351 0
-276 -309 351 0
277 -304 -346 -134 0
277 304 346 -134 0
-277 134 0
-277 -304 346 0
-277 304 -346 0
278 -279 -280 -281 -282 0
-278 282 0
-278 279 0
-278 281 0
-278 280 0
279 -332 333 -374 375 0
279 332 -333 374 -375 0
279 332 333 374 375 0
279 -332 -333 -374 -375 0
-279 -332 374 0
-279 332 -374 0
-279 333 -375 0
-279 -333 375 0
280 -319 320 -361 362 0
280 319 -320 361 -362 0
280 319 320 361 362 0
280 -319 -320 -361 -362 0
-280 -319 361 0
-280 319 -361 0
-280 320 -362 0
-280 -320 362 0
281 -299 300 342 0
281 -300 341 -342 0
281 -299 -300 -342 0
281 300 341 342 0
-281 300 -342 0
-281 -300 342 0
-281 299 -341 0
282 336 283 -284 0
282 -378 283 -284 0
-282 284 0
-282 -283 0
-282 -336 378 0
283 303 -345 0
-283 -303 0
-283 345 0
284 -301 -341 0
284 299 343 0
284 299 -301 0
284 -341 343 0
-284 -299 341 0
-284 301 -343 0
285 334 376 -286 -289 0
285 -334 -376 -286 -289 0
-285 289 0
-285 -334 376 0
-285 286 0
-285 334 -376 0
286 327 369 287 288 0
286 -327 -369 287 288 0
-286 -287 0
-286 -327 369 0
-286 -288 0
-286 327 -369 0
287 335 -377 0
-287 -335 0
-287 377 0
288 328 -370 0
-288 -328 0
-288 370 0
289 -305 -347 0
289 305 347 0
-289 305 -347 0
-289 -305 347 0
290 -291 -292 -293 0
-290 291 0
-290 292 0
-290 293 0
291 -302 -343 0
291 301 344 0
291 301 -302 0
291 -343 344 0
-291 -301 343 0
-291 302 -344 0
292 -336 -345 0
292 303 378 0
292 303 -336 0
292 -345 378 0
-292 -303 345 0
-292 336 -378 0
293 329 371 294 295 0
293 -329 -371 294 295 0
-293 -294 0
-293 -329 371 0
-293 -295 0
-293 329 -371 0
294 -328 370 0
-294 328 0
-294 -370 0
295 -302 344 0
-295 302 0
-295 -344 0
426 0
2 4 0
-2 -4 0
3 4 0
-3 -4 0
3 0

